/*********************************************
 * OPL 12.6.0.0 Data
 * Author: Adrian Rodriguez Bazaga, Pau Rodriguez Esmerats
 * Creation Date: 06/12/2017 at 23:03:08
 *********************************************/

nNurses=256;
maxConsec=2;
maxPresence=7;
maxHours=5;
minHours=1;
hours=24;
demand= [45 52 80 70 52 80 70 53 57 31 1 9 3 12 4 11 3 6 3 3 38 61 24 61  ];
